TCS_Benchmarks/redos_fix/regexlib2_output_distinct_3398_3397_17_0.smt2
(set-logic QF_S)
(declare-const x String)
(assert (str.in.re x (re.inter  (re.++ (re.+  (re.union  (str.to.re "\u{2d}") (re.union  (str.to.re "\u{2e}") (re.union (re.range "\u{30}" "\u{39}") (re.union (re.range "\u{41}" "\u{5a}") (re.range "\u{61}" "\u{7a}"))))) ) (re.+  (re.union (re.range "\u{30}" "\u{39}") (re.union (re.range "\u{41}" "\u{5a}") (re.union (re.range "\u{61}" "\u{7a}")  (str.to.re "\u{5f}")))) ))  (re.++ (re.+  (re.union  (str.to.re "\u{2d}") (re.union  (str.to.re "\u{2e}") (re.union (re.range "\u{30}" "\u{39}") (re.union (re.range "\u{41}" "\u{5a}") (re.range "\u{61}" "\u{7a}"))))) ) (re.++  (re.++  (str.to.re "\u{2e}") (re.++  (re.union  (re.++  (re.union (re.range "\u{41}" "\u{5a}") (re.range "\u{61}" "\u{7a}"))  (re.union (re.range "\u{41}" "\u{5a}") (re.range "\u{61}" "\u{7a}")))  (re.++  (re.union (re.range "\u{41}" "\u{5a}") (re.range "\u{61}" "\u{7a}"))   (re.++  (re.union (re.range "\u{41}" "\u{5a}") (re.range "\u{61}" "\u{7a}"))  (re.union (re.range "\u{41}" "\u{5a}") (re.range "\u{61}" "\u{7a}"))))) (re.opt  (re.++  (str.to.re "\u{2f}") (re.* (re.union (re.range "\u{00}" "\u{08}") (re.range "\u{0e}" "\u{1f}") (re.range "\u{21}" "\u{84}") (re.range "\u{86}" "\u{9f}") (re.range "\u{a1}" "\u{ff}")) )) ))) (re.+  (re.union (re.range "\u{30}" "\u{39}") (re.union (re.range "\u{41}" "\u{5a}") (re.union (re.range "\u{61}" "\u{7a}")  (str.to.re "\u{5f}")))) ))) )))
(check-sat)
(get-model)