TCS_Benchmarks/redos_fix/regexlib2_output_distinct_3398_3397_17_0.txt
([\-\.0-9A-Za-z]+)(([0-9A-Za-z_])+)
([\-\.0-9A-Za-z]+)(\.[A-Za-z]{2,3}(\/\S*)?)(([0-9A-Za-z_])+)